nApps = 218
nRes = 9
nActs = 442
nNetworks = 6

assignmentToResources = [2,2,2,1,3,2,2,1,2,2,2,2,3,2,1,1,3,3,1,3,3,2,3,3,1,1,1,1,2,2,2,2,1,3,3,2,3,2,2,2,2,2,3,2,3,3,1,3,3,1,2,2,2,2,1,1,1,3,1,1,1,3,2,1,1,3,1,3,3,1,3,2,1,1,2,2,2,1,1,1,2,3,1,1,1,1,2,1,1,2,3,1,2,3,2,3,3,3,1,3,5,5,5,5,5,5,4,6,6,5,5,5,4,4,5,5,5,5,5,5,5,6,6,6,6,5,5,4,4,6,6,6,6,4,4,4,6,6,6,6,6,4,4,4,4,4,4,4,4,4,5,5,5,5,5,5,5,5,5,4,4,4,4,4,4,4,4,6,6,6,5,5,6,6,6,5,5,5,5,5,5,5,5,5,5,5,5,5,6,6,6,6,6,6,6,6,6,4,5,5,5,5,4,4,4,4,4,6,6,5,5,4,4,4,4,4,6,6,6,6,6,4,4,4,4,4,4,4,6,4,4,4,5,4,5,5,4,5,5,5,5,6,6,4,4,6,6,6,5,7,6,8,5,9,5,9,4,8,5,9,4,8,5,7,6,8,5,7,4,9,6,8,5,9,5,7,4,8,6,8,5,7,4,8,5,7,5,9,6,7,5,9,4,9,9,7,7,7,9,9,9,7,7,7,7,9,8,8,7,7,7,7,7,9,7,7,7,7,8,9,7,9,9,7,8,7,8,9,8,8,8,8,7,8,8,8,9,8,9,8,9,9,9,9,7,9,9,7,7,7,9,9,9,9,9,9,8,8,9,8,8,8,8,7,7,7,8,8,8,7,7,7,7,7,9,7,7,7,7,9,7,7,7,8,8,8,8,8,8,7,8,9,9,7,9,7,8,9,9,9,8,7,7,7,9,9,9,9,8,8,7,8,7,7,8,9,9,9,9,8,9,8,7,9,9,9,7,9,9,7,8,7,7,7,7,8,7,9,8,7,8,8];

processingTimes = [104,112,128,128,112,128,112,80,120,72,80,88,96,112,112,160,128,168,104,104,128,112,96,120,56,80,128,152,136,80,48,136,136,168,128,48,152,104,72,112,56,168,128,88,136,96,136,64,112,112,112,120,136,56,64,56,128,112,120,48,88,128,144,96,168,144,160,104,72,80,144,128,136,80,104,104,112,136,128,136,160,120,160,120,136,136,128,104,112,112,112,104,128,56,144,104,64,160,48,152,8,8,500,4,4,8,3,500,4,4,3,500,4,500,5,8,3,4,500,13,500,3,3,3,3,3,4,500,4,3,3,8,3,5,5,500,4,4,500,3,500,4,4,3,4,3,3,500,3,3,5,4,500,4,8,3,4,3,4,3,3,3,3,3,3,3,4,500,3,4,3,4,3,500,500,4,4,4,3,500,4,4,3,3,8,4,3,100,3,3,3,3,3,500,5,100,100,4,500,5,4,3,3,5,4,500,500,4,500,3,500,3,500,13,3,3,4,3,3,3,4,3,3,3,8,3,5,3,500,3,4,13,3,4,5,3,5,500,500,4,3,500,13,5,5,3,500,3,8,8,3,3,3,3,4,4,5,5,4,4,3,3,3,3,4,4,3,3,4,4,4,4,4,4,7,7,500,500,500,500,500,500,8,8,4,4,3,3,3,3,4,4,3,3,8,8,500,4,4,8,3,500,4,4,3,500,4,500,5,8,3,4,500,13,500,3,3,3,3,3,4,500,4,3,3,8,3,5,5,500,4,4,500,3,500,4,4,3,4,3,3,500,3,3,5,4,500,4,8,3,4,3,4,3,3,3,3,3,3,3,4,500,3,4,3,4,3,500,500,4,4,4,3,500,4,4,3,3,8,4,3,100,3,3,3,3,3,500,5,100,100,4,500,5,4,3,3,5,4,500,500,4,500,3,500,3,500,13,3,3,4,3,3,3,4,3,3,3,8,3,5,3,500,3,4,13,3,4,5,3,5,500,500,4,3,500,13,5,5,3,500,3];

periods = [100000,20000,20000,20000,20000,100000,100000,10000,20000,20000,100000,100000,10000,10000,20000,20000,20000,20000,20000,100000,10000,20000,5000,20000,10000,100000,10000,10000,100000,100000,10000,10000,1000,10000,100000,10000,20000,100000,10000,100000,10000,100000,20000,1000,10000,20000,10000,10000,1000,50000,10000,20000,1000,10000,20000,100000,100000,20000,20000,10000,10000,50000,100000,100000,20000,100000,10000,100000,10000,100000,1000,10000,10000,1000,20000,20000,10000,20000,10000,10000,1000,10000,20000,100000,100000,20000,20000,10000,20000,50000,20000,10000,100000,100000,10000,100000,100000,20000,1000,10000,100000,100000,20000,20000,20000,20000,20000,20000,20000,100000,100000,100000,10000,10000,20000,20000,20000,20000,100000,100000,100000,10000,10000,10000,10000,10000,10000,20000,20000,20000,20000,20000,20000,20000,20000,20000,100000,100000,10000,10000,5000,10000,10000,10000,100000,100000,10000,10000,10000,10000,100000,100000,100000,100000,100000,10000,10000,10000,10000,1000,1000,1000,1000,1000,1000,1000,1000,10000,100000,100000,10000,10000,20000,20000,20000,100000,100000,100000,10000,10000,100000,10000,10000,100000,100000,100000,1000,1000,10000,10000,20000,10000,10000,10000,1000,1000,1000,50000,20000,1000,1000,10000,20000,100000,100000,100000,100000,20000,20000,100000,100000,100000,100000,100000,100000,100000,100000,100000,10000,10000,1000,10000,10000,10000,10000,1000,20000,10000,10000,20000,20000,100000,20000,20000,50000,50000,10000,100000,100000,10000,10000,100000,100000,1000,1000,10000,10000,10000,20000,20000,20000,20000,20000,20000,20000,20000,20000,20000,20000,20000,20000,20000,20000,20000,10000,10000,20000,20000,10000,10000,10000,10000,10000,10000,10000,10000,10000,10000,10000,10000,10000,10000,100000,100000,100000,100000,100000,100000,50000,50000,50000,50000,10000,10000,100000,100000,20000,20000,20000,20000,20000,20000,20000,100000,100000,100000,10000,10000,20000,20000,20000,20000,100000,100000,100000,10000,10000,10000,10000,10000,10000,20000,20000,20000,20000,20000,20000,20000,20000,20000,100000,100000,10000,10000,5000,10000,10000,10000,100000,100000,10000,10000,10000,10000,100000,100000,100000,100000,100000,10000,10000,10000,10000,1000,1000,1000,1000,1000,1000,1000,1000,10000,100000,100000,10000,10000,20000,20000,20000,100000,100000,100000,10000,10000,100000,10000,10000,100000,100000,100000,1000,1000,10000,10000,20000,10000,10000,10000,1000,1000,1000,50000,20000,1000,1000,10000,20000,100000,100000,100000,100000,20000,20000,100000,100000,100000,100000,100000,100000,100000,100000,100000,10000,10000,1000,10000,10000,10000,10000,1000,20000,10000,10000,20000,20000,100000,20000,20000,50000,50000,10000,100000,100000,10000,10000,100000,100000,1000,1000,10000,10000,10000];

assignmentToClusters = [1,2,3,4,4,5,5,6,4,4,7,8,9,10,4,11,12,4,13,14,15,4,16,4,17,18,19,20,21,22,9,23,24,15,25,26,27,28,29,5,17,30,31,32,33,34,15,35,36,37,38,39,40,19,41,42,43,4,44,45,19,37,5,46,4,47,48,49,50,30,51,19,52,53,11,54,55,4,56,57,58,19,59,60,61,62,4,63,64,37,65,66,30,30,15,67,68,69,70,56,71,72,73,74,75,76,77,78,79,80,81,82,83,84,85,86,87,88,89,90,91,92,93,94,95,96,97,98,99,100,101,102,103,104,105,106,107,108,109,110,111,112,113,114,115,116,117,118,119,120,121,122,123,124,125,126,127,128,129,130,131,132,133,134,135,136,137,138,139,140,141,142,143,144,145,146,147,148,149,150,151,152,153,154,155,156,157,158,159,160,161,162,163,164,165,166,167,168,169,170,171,172,173,174,175,176,177,178,179,180,181,182,183,184,185,186,187,188,189,190,191,192,193,194,195,196,197,198,199,200,201,202,203,204,205,206,207,208,209,210,211,212,213,214,215,216,217,218,4,4,4,4,4,4,4,4,4,4,4,4,4,4,4,4,9,9,11,11,15,15,15,15,15,15,17,17,19,19,19,19,19,19,30,30,30,30,30,30,37,37,37,37,56,56,71,72,73,74,75,76,77,78,79,80,81,82,83,84,85,86,87,88,89,90,91,92,93,94,95,96,97,98,99,100,101,102,103,104,105,106,107,108,109,110,111,112,113,114,115,116,117,118,119,120,121,122,123,124,125,126,127,128,129,130,131,132,133,134,135,136,137,138,139,140,141,142,143,144,145,146,147,148,149,150,151,152,153,154,155,156,157,158,159,160,161,162,163,164,165,166,167,168,169,170,171,172,173,174,175,176,177,178,179,180,181,182,183,184,185,186,187,188,189,190,191,192,193,194,195,196,197,198,199,200,201,202,203,204,205,206,207,208,209,210,211,212,213,214,215,216,217,218];

precedenceAdjList = [[],[],[],[249],[],[],[39],[],[251],[],[],[],[],[],[263],[267],[],[259],[],[],[269],[261],[],[253,255],[275],[],[],[],[],[],[265],[],[],[273],[],[],[],[],[],[62],[],[283],[],[],[],[],[],[],[],[289],[],[],[],[277],[],[],[],[23,4],[],[],[281],[291],[5],[],[14],[],[],[],[],[285],[],[53,279],[],[],[],[],[],[],[],[],[],[],[],[],[],[],[257],[],[],[],[],[],[],[287],[271],[],[],[],[],[293],[],[],[],[],[],[],[],[],[],[],[],[],[],[],[],[],[],[],[],[],[],[],[],[],[],[],[],[],[],[],[],[],[],[],[],[],[],[],[],[],[],[],[],[],[],[],[],[],[],[],[],[],[],[],[],[],[],[],[],[],[],[],[],[],[],[],[],[],[],[],[],[],[],[],[],[],[],[],[],[],[],[],[],[],[],[],[],[],[],[],[],[],[],[],[],[],[],[],[],[],[],[],[],[],[],[],[],[],[],[],[],[],[],[],[],[],[],[],[],[],[],[],[],[],[],[],[],[],[],[],[],[],[],[],[],[],[],[],[],[],[],[],[],[],[],[],[],[],[8],[248],[57],[250],[86],[252],[21],[254],[77],[256],[86],[258],[14],[260],[9],[262],[12],[264],[74],[266],[46],[268],[20],[270],[94],[272],[40],[274],[26],[276],[81],[278],[71],[280],[69],[282],[92],[284],[41],[286],[61],[288],[89],[290],[78],[292],[100],[101],[102],[103],[104],[105],[106],[107],[108],[109],[110],[111],[112],[113],[114],[115],[116],[117],[118],[119],[120],[121],[122],[123],[124],[125],[126],[127],[128],[129],[130],[131],[132],[133],[134],[135],[136],[137],[138],[139],[140],[141],[142],[143],[144],[145],[146],[147],[148],[149],[150],[151],[152],[153],[154],[155],[156],[157],[158],[159],[160],[161],[162],[163],[164],[165],[166],[167],[168],[169],[170],[171],[172],[173],[174],[175],[176],[177],[178],[179],[180],[181],[182],[183],[184],[185],[186],[187],[188],[189],[190],[191],[192],[193],[194],[195],[196],[197],[198],[199],[200],[201],[202],[203],[204],[205],[206],[207],[208],[209],[210],[211],[212],[213],[214],[215],[216],[217],[218],[219],[220],[221],[222],[223],[224],[225],[226],[227],[228],[229],[230],[231],[232],[233],[234],[235],[236],[237],[238],[239],[240],[241],[242],[243],[244],[245],[246],[247]];